certificates/rado_a13_c235_N25.drat
-24 -25 0
d -24 -18 -25 0
18 -25 0
-25 0
-18 0
17 0
19 0
24 0
-5 0
-3 0
-10 0
-7 0
-12 0
4 0
6 0
2 0
9 0
11 0
8 0
13 0
-16 0
-20 0
-14 0
-21 0
-23 0
-22 0
-1 0
15 0
0
